LengthSchedulingHorizon=2592;
nAttributes=2;
SetupCosts=[[0, 0], [20, 20], [20, 20]];
SetupTimes=[[0, 0], [4, 4], [4, 4]];
nMachines=5;
MinCap=[0, 0, 0, 0, 0];
MaxCap=[72, 10, 8, 96, 19];

initState=[1, 2, 2, 1, 1];
nShifts=5;
ShiftStartTimes = [[0, 0, 0, 0, 1052], [0, 0, 0, 488, 1373], [0, 425, 1151, 1518, 2279], [1362, 1440, 1690, 1978, 2443], [0, 0, 79, 940, 1145]];
ShiftEndTimes = [[0, 0, 0, 0, 2534], [0, 0, 0, 1351, 1936], [0, 608, 1307, 1901, 2531], [1398, 1543, 1767, 2278, 2485], [0, 0, 847, 999, 1532]];
nJobs=10;
EligibleMachines = [{1, 5}, {3, 4, 5}, {1, 2, 5}, {1, 2, 4, 5}, {2, 3, 5}, {1, 3, 4, 5}, {2, 3}, {2, 4}, {4, 5}, {1, 3}];
EarliestStart=[9, 33, 26, 5, 2, 10, 11, 56, 16, 37];
LatestEnd=[333, 231, 383, 41, 176, 172, 73, 238, 252, 66];
MinTime=[72, 89, 96, 11, 75, 41, 17, 84, 100, 9];
MaxTime=[100, 100, 100, 100, 100, 100, 100, 100, 100, 100];
JobSize=[4, 1, 5, 3, 3, 1, 3, 3, 5, 3];
Attribute=[2, 1, 1, 2, 1, 2, 1, 1, 2, 1];

upper_bound_integer_objective=63000;
mult_factor_total_runtime=4;
mult_factor_finished_toolate=6000;
mult_factor_total_setuptimes=0;
mult_factor_total_setupcosts=3;
running_time_bound=594;
min_duration=9;
max_duration=100;
max_setup_time=4;
max_setup_cost=20;
